
===== New CPLEX run =====
Instance: /home/yorig/tuner/mpils-tests/instances/miplib/medium-1/neos-3024952-loue.mps
Config: /scratch/yorig/mpils-results-grid-seconds-10-no-mip-start/medium-1/4proc/seed-4/9_neos-3024952-loue_seed-4_20260503_044340/expansion/config_param_CPXPARAM_MIP_Strategy_SubAlgorithm_1_iter_4.prm
========================

Selected objective sense:  MINIMIZE
Selected objective  name:  R3706
Selected RHS        name:  B
Selected bound      name:  BOUND
Version identifier: 22.1.2.0 | 2024-11-26 | 0edbb82fd
CPXPARAM_Threads                                 8
CPXPARAM_Parallel                                1
CPXPARAM_MIP_Cuts_Cliques                        2
CPXPARAM_MIP_Strategy_NodeSelect                 3
CPXPARAM_MIP_Strategy_SubAlgorithm               1
CPXPARAM_MIP_Cuts_Implied                        2
CPXPARAM_MIP_Cuts_GUBCovers                      -1
CPXPARAM_MIP_Limits_GomoryCand                   400
CPXPARAM_MIP_Cuts_PathCut                        -1
CPXPARAM_MIP_Cuts_MIRCut                         2
CPXPARAM_MIP_Cuts_Disjunctive                    -1
CPXPARAM_Preprocessing_Symmetry                  0
CPXPARAM_MIP_Strategy_Dive                       1
CPXPARAM_MIP_Strategy_HeuristicFreq              500
CPXPARAM_TimeLimit                               10
CPXPARAM_MIP_Limits_CutsFactor                   4
CPXPARAM_MIP_Limits_ProbeTime                    1
Tried aggregator 2 times.
MIP Presolve eliminated 40 rows and 0 columns.
MIP Presolve modified 80 coefficients.
Aggregator did 32 substitutions.
Reduced MIP has 3633 rows, 3223 columns, and 15906 nonzeros.
Reduced MIP has 0 binaries, 3223 generals, 0 SOSs, and 0 indicators.
Presolve time = 0.01 sec. (7.72 ticks)
Tried aggregator 1 time.
Reduced MIP has 3633 rows, 3223 columns, and 15906 nonzeros.
Reduced MIP has 0 binaries, 3223 generals, 0 SOSs, and 0 indicators.
Presolve time = 0.00 sec. (5.50 ticks)
MIP emphasis: balance optimality and feasibility.
MIP search method: dynamic search.
Parallel mode: deterministic, using up to 8 threads.
Root relaxation solution time = 0.29 sec. (205.53 ticks)

        Nodes                                         Cuts/
   Node  Left     Objective  IInf  Best Integer    Best Bound    ItCnt     Gap

      0     0    22882.0000   497                  22882.0000       23         
      0     0    23588.4667   795                   Cuts: 525     1125         
      0     0    23882.3276   815                   Cuts: 230     1814         
      0     0    24071.3913  1050                   Cuts: 165     2232         
      0     0    24139.2852  1223                   Cuts: 138     2576         
      0     0    24335.4420  1222                   Cuts: 127     2931         
      0     0    24489.3526  1273                   Cuts: 142     3230         
      0     0    24632.8998  1416                   Cuts: 100     3508         
      0     0    24751.7567  1253                    Cuts: 72     3821         
      0     0    24781.1554  1314                    Cuts: 76     4085         
      0     0    24806.6938  1426                    Cuts: 68     4299         
      0     0    24814.0335  1468                    Cuts: 52     4437         
      0     0    24815.6911  1441                    Cuts: 24     4568         
      0     0    24816.4272  1499                    Cuts: 14     4655         
      0     0    24817.4659  1535                    Cuts: 11     4701         
      0     2    24817.4659  1535                  24817.4659     4701         
Elapsed time = 6.31 sec. (6383.90 ticks, tree = 0.02 MB, solutions = 0)
    109    94    24857.7000  1505                  24817.4659    10992         
    424   371    24920.7916  1300                  24817.4659    22327         
    751   694    25081.9507  1142                  24817.4659    37535         
   1072   918    25223.3169  1130                  24817.4659    48491         
   1442  1329    25383.5199  1001                  24817.4659    68328         
   1883  1723    25586.5057  1049                  24817.4659    84506         
   2322  2140    26014.0089   889                  24817.4659    98949         
   2855  2606    26064.6102  1032                  24817.4659   114911         
   3408  3236    26548.9360   853                  24817.4659   130337         

Clique cuts applied:  0
Implied bound cuts applied:  0
Mixed integer rounding cuts applied:  103
Zero-half cuts applied:  151
Gomory fractional cuts applied:  75

Root node processing (before b&c):
  Real time             =    6.24 sec. (6380.37 ticks)
Parallel b&c, 8 threads:
  Real time             =    3.76 sec. (2616.30 ticks)
  Sync time (average)   =    1.48 sec.
  Wait time (average)   =    0.00 sec.
                          ------------
Total (root+branch&cut) =   10.00 sec. (8996.67 ticks)
Gap: unavailable
Lower bound: 24817.5
End of CPLEX run. Time: 10.0051 seconds

===== New CPLEX run =====
Instance: /home/yorig/tuner/mpils-tests/instances/miplib/medium-1/neos-3024952-loue.mps
Config: /scratch/yorig/mpils-results-grid-seconds-10-no-mip-start/medium-1/4proc/seed-4/9_neos-3024952-loue_seed-4_20260503_044340/expansion/config_param_CPXPARAM_MIP_Strategy_SubAlgorithm_2_iter_4.prm
========================

Selected objective sense:  MINIMIZE
Selected objective  name:  R3706
Selected RHS        name:  B
Selected bound      name:  BOUND
Version identifier: 22.1.2.0 | 2024-11-26 | 0edbb82fd
CPXPARAM_Threads                                 8
CPXPARAM_Parallel                                1
CPXPARAM_MIP_Cuts_Cliques                        2
CPXPARAM_MIP_Strategy_NodeSelect                 3
CPXPARAM_MIP_Strategy_SubAlgorithm               2
CPXPARAM_MIP_Cuts_Implied                        2
CPXPARAM_MIP_Cuts_GUBCovers                      -1
CPXPARAM_MIP_Limits_GomoryCand                   400
CPXPARAM_MIP_Cuts_PathCut                        -1
CPXPARAM_MIP_Cuts_MIRCut                         2
CPXPARAM_MIP_Cuts_Disjunctive                    -1
CPXPARAM_Preprocessing_Symmetry                  0
CPXPARAM_MIP_Strategy_Dive                       1
CPXPARAM_MIP_Strategy_HeuristicFreq              500
CPXPARAM_TimeLimit                               10
CPXPARAM_MIP_Limits_CutsFactor                   4
CPXPARAM_MIP_Limits_ProbeTime                    1
Tried aggregator 2 times.
MIP Presolve eliminated 40 rows and 0 columns.
MIP Presolve modified 80 coefficients.
Aggregator did 32 substitutions.
Reduced MIP has 3633 rows, 3223 columns, and 15906 nonzeros.
Reduced MIP has 0 binaries, 3223 generals, 0 SOSs, and 0 indicators.
Presolve time = 0.01 sec. (7.72 ticks)
Tried aggregator 1 time.
Reduced MIP has 3633 rows, 3223 columns, and 15906 nonzeros.
Reduced MIP has 0 binaries, 3223 generals, 0 SOSs, and 0 indicators.
Presolve time = 0.00 sec. (5.50 ticks)
MIP emphasis: balance optimality and feasibility.
MIP search method: dynamic search.
Parallel mode: deterministic, using up to 8 threads.
Root relaxation solution time = 0.23 sec. (166.79 ticks)

        Nodes                                         Cuts/
   Node  Left     Objective  IInf  Best Integer    Best Bound    ItCnt     Gap

      0     0    22882.0000   397                  22882.0000     3901         
      0     0    23673.0243   729                   Cuts: 542     4503         
      0     0    23866.7052   835                   Cuts: 248     4696         
      0     0    23936.8733   939                   Cuts: 143     4808         
      0     0    23956.4910  1117                   Cuts: 141     4860         
      0     0    24076.5151  1014                   Cuts: 115     4960         
      0     0    24167.0528  1129                   Cuts: 126     5030         
      0     0    24321.9550   991                   Cuts: 116     5113         
      0     0    24363.1288  1081                    Cuts: 87     5153         
      0     0    24463.4500   976                    Cuts: 91     5247         
      0     0    24498.7137  1105                    Cuts: 83     5335         
      0     0    24539.6603  1277                   Cuts: 111     5409         
      0     0    24621.2736  1278                    Cuts: 53     5506         
      0     0    24626.0991  1218                    Cuts: 89     5546         
      0     0    24629.1135  1279                    Cuts: 42     5575         
      0     0    24842.1119  1059                    Cuts: 55     5690         
      0     0    24845.3179  1227                    Cuts: 61     5752         
      0     2    24845.3179  1227                  24965.5680     5752         
Elapsed time = 3.02 sec. (2380.27 ticks, tree = 0.02 MB, solutions = 0)
   1173   932    25179.8249   915                  24965.5680    13202         
   2715  2463    26669.1588   718                  24965.5680    24510         
   4560  4271    28549.1143   291                  24965.5680    35933         
   6596  6321    32125.8952    94                  24965.5680    46004         
*  7375  6968      integral     0    33571.0000    24965.5680    48906   25.63%
*  7496  7110      integral     0    32961.0000    24965.5680    49543   24.26%
*  7541+ 7096                        32499.0000    24965.5680            23.18%
*  7728  7133      integral     0    31953.0000    24965.5680    49635   21.87%
*  7875+ 7141                        31274.0000    24965.5680            20.17%
*  8304+ 6132                        30713.0000    24965.5680            18.71%
*  8360+ 6291                        30398.0000    24965.5680            17.87%
   9111  5697    29735.0000    42    30398.0000    24965.5680    57517   17.87%
  10640  6848    30357.0000     7    30398.0000    24965.5680    62449   17.87%
* 11053  7377      integral     0    30396.0000    24965.5680    64584   17.87%
* 11385  7273      integral     0    30324.0000    24965.5680    64083   17.67%
* 11418+ 7210                        30004.0000    24965.5680            16.79%
* 11941+ 5794                        28572.0000    24965.5680            12.62%
* 11941+ 5793                        28340.0000    24965.5680            11.91%

Performing restart 1

Repeating presolve.
Tried aggregator 1 time.
MIP Presolve modified 16 coefficients.
Reduced MIP has 3633 rows, 3223 columns, and 15892 nonzeros.
Reduced MIP has 0 binaries, 3223 generals, 0 SOSs, and 0 indicators.
Presolve time = 0.00 sec. (6.35 ticks)
Tried aggregator 1 time.
Reduced MIP has 3633 rows, 3223 columns, and 15892 nonzeros.
Reduced MIP has 0 binaries, 3223 generals, 0 SOSs, and 0 indicators.
Presolve time = 0.00 sec. (5.79 ticks)
Represolve time = 0.02 sec. (33.19 ticks)
* 11948+    0                        28330.0000    24965.5680            11.88%
  11948     0    25257.1444  1060    28330.0000     Cuts: 316    74382   10.85%
* 11948+    0                        28300.0000    25257.1444            10.75%
  11948     0    25664.8687  1026    28300.0000     Cuts: 255    74619    9.31%
  11948     0    25853.7024  1250    28300.0000     Cuts: 193    74792    8.64%
  11948     0    26101.0235   929    28300.0000     Cuts: 150    74977    7.77%
* 11948+    0                        28180.0000    26101.0235             7.38%
  11948     0    26224.1890   985    28180.0000     Cuts: 128    75091    6.94%
  11948     0    26263.1610   885    28180.0000      Cuts: 80    75190    6.80%
  11948     0    26297.1239   990    28180.0000      Cuts: 94    75284    6.68%
  11948     0    26323.9888  1042    28180.0000      Cuts: 78    75357    6.59%
  11948     0    26342.1391   987    28180.0000      Cuts: 60    75428    6.52%
  11948     0    26366.7499   891    28180.0000      Cuts: 36    75469    6.43%
  11948     0    26367.2591  1022    28180.0000      Cuts: 18    75491    6.43%
  11948     0    26367.2591   989    28180.0000      Cuts: 11    75501    6.43%
  11948     0    26368.4296   993    28180.0000       Cuts: 6    75505    6.43%
  11948     0    26370.8172  1105    28180.0000      Cuts: 12    75520    6.42%
  11948     0    26372.9448  1081    28180.0000      Cuts: 12    75536    6.41%
  11948     0    26373.6896  1066    28180.0000       Cuts: 7    75549    6.41%
  11948     0    26376.1932  1115    28180.0000       Cuts: 4    75564    6.40%
  11948     0    26376.2594  1073    28180.0000       Cuts: 8    75578    6.40%
  11948     0    26376.2594  1100    28180.0000    MIRcuts: 5    75583    6.40%
  11948     0    26376.2994  1047    28180.0000    MIRcuts: 1    75584    6.40%
Advanced basis not built.

Clique cuts applied:  0
Implied bound cuts applied:  0
Mixed integer rounding cuts applied:  234
Zero-half cuts applied:  46
Gomory fractional cuts applied:  104

Root node processing (before b&c):
  Real time             =    2.97 sec. (2377.79 ticks)
Parallel b&c, 8 threads:
  Real time             =    7.04 sec. (6464.35 ticks)
  Sync time (average)   =    1.17 sec.
  Wait time (average)   =    0.00 sec.
                          ------------
Total (root+branch&cut) =   10.01 sec. (8842.14 ticks)
Gap: 6.4%
Upper bound: 28180
Lower bound: 26376.3
End of CPLEX run. Time: 10.0079 seconds

===== New CPLEX run =====
Instance: /home/yorig/tuner/mpils-tests/instances/miplib/medium-1/neos-3024952-loue.mps
Config: /scratch/yorig/mpils-results-grid-seconds-10-no-mip-start/medium-1/4proc/seed-4/9_neos-3024952-loue_seed-4_20260503_044340/expansion/config_param_CPXPARAM_MIP_Strategy_SubAlgorithm_3_iter_4.prm
========================

Selected objective sense:  MINIMIZE
Selected objective  name:  R3706
Selected RHS        name:  B
Selected bound      name:  BOUND
Version identifier: 22.1.2.0 | 2024-11-26 | 0edbb82fd
CPXPARAM_Threads                                 8
CPXPARAM_Parallel                                1
CPXPARAM_MIP_Cuts_Cliques                        2
CPXPARAM_MIP_Strategy_NodeSelect                 3
CPXPARAM_MIP_Strategy_SubAlgorithm               3
CPXPARAM_MIP_Cuts_Implied                        2
CPXPARAM_MIP_Cuts_GUBCovers                      -1
CPXPARAM_MIP_Limits_GomoryCand                   400
CPXPARAM_MIP_Cuts_PathCut                        -1
CPXPARAM_MIP_Cuts_MIRCut                         2
CPXPARAM_MIP_Cuts_Disjunctive                    -1
CPXPARAM_Preprocessing_Symmetry                  0
CPXPARAM_MIP_Strategy_Dive                       1
CPXPARAM_MIP_Strategy_HeuristicFreq              500
CPXPARAM_TimeLimit                               10
CPXPARAM_MIP_Limits_CutsFactor                   4
CPXPARAM_MIP_Limits_ProbeTime                    1
Tried aggregator 2 times.
MIP Presolve eliminated 40 rows and 0 columns.
MIP Presolve modified 80 coefficients.
Aggregator did 32 substitutions.
Reduced MIP has 3633 rows, 3223 columns, and 15906 nonzeros.
Reduced MIP has 0 binaries, 3223 generals, 0 SOSs, and 0 indicators.
Presolve time = 0.01 sec. (7.72 ticks)
Tried aggregator 1 time.
Reduced MIP has 3633 rows, 3223 columns, and 15906 nonzeros.
Reduced MIP has 0 binaries, 3223 generals, 0 SOSs, and 0 indicators.
Presolve time = 0.00 sec. (5.50 ticks)
MIP emphasis: balance optimality and feasibility.
MIP search method: dynamic search.
Parallel mode: deterministic, using up to 8 threads.
Root relaxation solution time = 0.24 sec. (166.79 ticks)

        Nodes                                         Cuts/
   Node  Left     Objective  IInf  Best Integer    Best Bound    ItCnt     Gap

      0     0    22882.0000   397                  22882.0000     3901         
      0     0    23640.4458   705                   Cuts: 556    10619         
      0     0    23877.2868   872                   Cuts: 263    17637         
      0     0    23974.8733   829                   Cuts: 160    21261         
      0     0    23993.5622  1020                   Cuts: 177    29608         
      0     0    24440.5573   918                   Cuts: 187    36130         
      0     0    24491.6573  1208                   Cuts: 165    39800         

Clique cuts applied:  0
Implied bound cuts applied:  0
Mixed integer rounding cuts applied:  164
Zero-half cuts applied:  135
Gomory fractional cuts applied:  88

Root node processing (before b&c):
  Real time             =   10.00 sec. (9874.91 ticks)
Parallel b&c, 8 threads:
  Real time             =    0.00 sec. (0.00 ticks)
  Sync time (average)   =    0.00 sec.
  Wait time (average)   =    0.00 sec.
                          ------------
Total (root+branch&cut) =   10.00 sec. (9874.91 ticks)
Gap: unavailable
Lower bound: 24491.7
End of CPLEX run. Time: 10.0047 seconds

===== New CPLEX run =====
Instance: /home/yorig/tuner/mpils-tests/instances/miplib/medium-1/neos-3024952-loue.mps
Config: /scratch/yorig/mpils-results-grid-seconds-10-no-mip-start/medium-1/4proc/seed-4/9_neos-3024952-loue_seed-4_20260503_044340/expansion/config_param_CPXPARAM_MIP_Strategy_SubAlgorithm_4_iter_4.prm
========================

Selected objective sense:  MINIMIZE
Selected objective  name:  R3706
Selected RHS        name:  B
Selected bound      name:  BOUND
Version identifier: 22.1.2.0 | 2024-11-26 | 0edbb82fd
CPXPARAM_Threads                                 8
CPXPARAM_Parallel                                1
CPXPARAM_MIP_Cuts_Cliques                        2
CPXPARAM_MIP_Strategy_NodeSelect                 3
CPXPARAM_MIP_Strategy_SubAlgorithm               4
CPXPARAM_MIP_Cuts_Implied                        2
CPXPARAM_MIP_Cuts_GUBCovers                      -1
CPXPARAM_MIP_Limits_GomoryCand                   400
CPXPARAM_MIP_Cuts_PathCut                        -1
CPXPARAM_MIP_Cuts_MIRCut                         2
CPXPARAM_MIP_Cuts_Disjunctive                    -1
CPXPARAM_Preprocessing_Symmetry                  0
CPXPARAM_MIP_Strategy_Dive                       1
CPXPARAM_MIP_Strategy_HeuristicFreq              500
CPXPARAM_TimeLimit                               10
CPXPARAM_MIP_Limits_CutsFactor                   4
CPXPARAM_MIP_Limits_ProbeTime                    1
Tried aggregator 2 times.
MIP Presolve eliminated 40 rows and 0 columns.
MIP Presolve modified 80 coefficients.
Aggregator did 32 substitutions.
Reduced MIP has 3633 rows, 3223 columns, and 15906 nonzeros.
Reduced MIP has 0 binaries, 3223 generals, 0 SOSs, and 0 indicators.
Presolve time = 0.01 sec. (7.72 ticks)
Tried aggregator 1 time.
Reduced MIP has 3633 rows, 3223 columns, and 15906 nonzeros.
Reduced MIP has 0 binaries, 3223 generals, 0 SOSs, and 0 indicators.
Presolve time = 0.00 sec. (5.50 ticks)
MIP emphasis: balance optimality and feasibility.
MIP search method: dynamic search.
Parallel mode: deterministic, using up to 8 threads.
Root relaxation solution time = 0.22 sec. (166.79 ticks)

        Nodes                                         Cuts/
   Node  Left     Objective  IInf  Best Integer    Best Bound    ItCnt     Gap

      0     0    22882.0000   397                  22882.0000     3901         
      0     0    23673.0243   771                   Cuts: 542     3936         
      0     0    24029.6537   882                   Cuts: 234     3969         
      0     0    24082.3859  1115                   Cuts: 154     4000         
      0     0    24110.7537  1063                   Cuts: 111     4033         
      0     0    24216.9289  1194                   Cuts: 123     4064         
      0     0    24299.0190  1151                   Cuts: 121     4097         
      0     0    24341.4438  1146                   Cuts: 102     4128         
      0     0    24364.2267  1203                   Cuts: 126     4159         
      0     0    24395.8644  1235                   Cuts: 108     4189         
      0     0    24473.0285  1156                    Cuts: 83     4222         
      0     0    24528.5329  1240                    Cuts: 99     4256         
      0     0    24610.6812  1286                   Cuts: 106     4289         
      0     0    24650.2165  1400                    Cuts: 93     4324         
      0     0    24677.1539  1386                    Cuts: 72     4358         
      0     0    24694.2831  1188                    Cuts: 86     4393         

Clique cuts applied:  0
Implied bound cuts applied:  0
Mixed integer rounding cuts applied:  142
Zero-half cuts applied:  168
Gomory fractional cuts applied:  48

Root node processing (before b&c):
  Real time             =   10.00 sec. (3949.16 ticks)
Parallel b&c, 8 threads:
  Real time             =    0.00 sec. (0.00 ticks)
  Sync time (average)   =    0.00 sec.
  Wait time (average)   =    0.00 sec.
                          ------------
Total (root+branch&cut) =   10.00 sec. (3949.16 ticks)
Gap: unavailable
Lower bound: 24694.3
End of CPLEX run. Time: 10.0041 seconds
